(set-logic QF_S)
(declare-fun var_0xINPUT_151984 () String)
(assert (and (not (= var_0xINPUT_151984 "CQALcCP5TB")) (= (len var_0xINPUT_151984) 0) (not (= var_0xINPUT_151984 "Example:")) (not (= var_0xINPUT_151984 "CQALcCP5TB"))))
(check-sat var_0xINPUT_151984)